benchmarks/VRPTW/TSPTW/solution/n40w160.005.txt.solution
1 5 21 3 19 26 38 18 2 37 25 16 29 12 24 28 4 7 6 10 30 15 8 40 14 31 32 34 22 23 9 27 36 17 39 20 11 33 13 41 35 
315
